81
0 15 3 73 70 47 77 10 27 45 
1 24 13 65 72 68 44 50 42 28 
56 17 49 34 6 30 59 78 39 54 
16 51 8 20 22 4 58 33 19 43 
76 46 53 23 57 80 7 67 11 31 
66 62 38 25 35 12 48 40 79 61 
63 26 36 2 37 9 14 74 60 21 
41 32 29 52 71 64 75 55 5 18 
69 
